Problem:    
Rows:       248
Columns:    89 (72 integer, 72 binary)
Non-zeros:  820
Status:     INTEGER OPTIMAL
Objective:  value = 225.762997 (MINimum)

   No.   Row name        Activity     Lower bound   Upper bound
------ ------------    ------------- ------------- -------------
     1 r.5                   225.763             0               
     2 r.6                    8.6656      -1973.38               
     3 r.7                   2225.76             0               
     4 r.8                  -1940.87      -1959.87               
     5 r.9                   225.763             0               
     6 r.10                 -1745.98      -1971.74               
     7 r.11                  2225.76             0               
     8 r.12                 -1894.53      -1958.66               
     9 r.13                  2225.76             0               
    10 r.14                 -1897.03      -1952.27               
    11 r.15                  225.763             0               
    12 r.16                  24.0005      -1931.43               
    13 r.17                  2225.76             0               
    14 r.18                 -1944.77      -1974.68               
    15 r.19                  225.763             0               
    16 r.20                 -1663.73       -1961.3               
    17 r.21                  2225.76             0               
    18 r.22                 -1970.09      -1976.25               
    19 r.23                  225.763             0               
    20 r.24                 -49.5733      -1964.56               
    21 r.25                  2225.76             0               
    22 r.26                 -1774.24       -1899.7               
    23 r.27                  225.763             0               
    24 r.28                 -1702.43      -1928.19               
    25 r.29                  225.763             0               
    26 r.30                  125.458      -1900.16               
    27 r.31                  2225.76             0               
    28 r.32                 -1774.24      -1928.59               
    29 r.33                  2225.76             0               
    30 r.34                 -1998.83      -1998.83               
    31 r.35                  225.763             0               
    32 r.36                  -1987.7       -1987.7               
    33 r.37                        1             1             = 
    34 r.38                        1             1             = 
    35 r.39                        1             1             = 
    36 r.40                        1             1             = 
    37 r.41                        1             1             = 
    38 r.42                        1             1             = 
    39 r.43                        1             1             = 
    40 r.44                        1             1             = 
    41 r.45                  247.856       28.2582               
    42 r.46                 -247.856      -1973.38               
    43 r.47                   41.336        41.336               
    44 r.48                  -41.336      -1959.87               
    45 r.49                  96.8007       47.7349               
    46 r.50                 -99.3007      -1973.38               
    47 r.51                  1959.87       68.5738               
    48 r.52                 -1954.87      -1959.87               
    49 r.53                  49.0658       25.3196               
    50 r.54                 -49.0658      -1973.38               
    51 r.55                  272.141       38.6982               
    52 r.56                 -272.141      -1959.87               
    53 r.57                  23.7462       23.7462               
    54 r.58                 -23.7462      -1973.38               
    55 r.59                   1886.3       35.4382               
    56 r.60                  -1886.3      -1959.87               
    57 r.61                  -1780.4      -1875.25               
    58 r.62                 -1708.59       -1879.3               
    59 r.63                 -1838.37      -1875.25               
    60 r.64                 -1766.56       -1879.3               
    61 r.65                  119.293       99.8431               
    62 r.66                 -119.293      -1973.38               
    63 r.67                  161.633        71.408               
    64 r.68                 -161.633      -1959.87               
    65 r.69                        5      -1970.88               
    66 r.70                 -1937.04      -1954.87               
    67 r.71                  1993.87      -1970.88               
    68 r.72                  51.8328      -1954.87               
    69 r.73                  1754.64         26.62               
    70 r.74                 -1752.14      -1971.74               
    71 r.75                  1953.66       40.1298               
    72 r.76                 -1958.66      -1958.66               
    73 r.77                  1848.95       47.7349               
    74 r.78                 -1851.45      -1971.74               
    75 r.79                  1918.53       68.5738               
    76 r.80                 -1913.53      -1958.66               
    77 r.81                  1801.21       25.3196               
    78 r.82                 -1801.21      -1971.74               
    79 r.83                  230.805       38.6982               
    80 r.84                 -230.805      -1958.66               
    81 r.85                  1775.89       23.7462               
    82 r.86                 -1775.89      -1971.74               
    83 r.87                  1844.96       35.4382               
    84 r.88                 -1844.96      -1958.66               
    85 r.89                  1971.74       100.305               
    86 r.90                 -1971.74      -1971.74               
    87 r.91                  192.107       71.8105               
    88 r.92                 -192.107      -1958.66               
    89 r.93                  1871.44      -1875.71               
    90 r.94                 -28.2582       -1879.7               
    91 r.95                   19.992      -1875.71               
    92 r.96                  -1879.7       -1879.7               
    93 r.97                 -1747.14      -1969.24               
    94 r.98                  -1895.7      -1953.66               
    95 r.99                  241.724      -1969.24               
    96 r.100                 93.1688      -1953.66               
    97 r.101                  1903.2         26.62               
    98 r.102                 -1900.7      -1952.27               
    99 r.103                 40.1298       40.1298               
   100 r.104                -45.1298      -1931.43               
   101 r.105                 148.555       28.2582               
   102 r.106                -148.555      -1952.27               
   103 r.107                 86.4658        41.336               
   104 r.108                -86.4658      -1931.43               
   105 r.109                -1949.77      -1949.77               
   106 r.110                -36.2309      -1926.43               
   107 r.111                -230.805      -1949.77               
   108 r.112                 1682.73      -1926.43               
   109 r.113                 1924.45       23.7462               
   110 r.114                -1924.45      -1952.27               
   111 r.115                 1931.43       35.4382               
   112 r.116                -1931.43      -1931.43               
   113 r.117                 120.297       100.305               
   114 r.118                -120.297      -1952.27               
   115 r.119                 278.573       71.8105               
   116 r.120                -278.573      -1931.43               
   117 r.121                  19.992      -1875.71               
   118 r.122                 -1879.7       -1879.7               
   119 r.123                 106.458      -1875.71               
   120 r.124                -1793.24       -1879.7               
   121 r.125                 -1895.7      -1949.77               
   122 r.126                 17.8349      -1926.43               
   123 r.127                 93.1688      -1949.77               
   124 r.128                  2006.7      -1926.43               
   125 r.129                 1953.43         26.62               
   126 r.130                -1950.93      -1974.68               
   127 r.131                 1722.86       40.1298               
   128 r.132                -1727.86       -1961.3               
   129 r.133                  198.79       28.2582               
   130 r.134                 -198.79      -1974.68               
   131 r.135                 1769.19        41.336               
   132 r.136                -1769.19       -1961.3               
   133 r.137                -1949.77      -1949.77               
   134 r.138                -36.2309      -1926.43               
   135 r.139                -230.805      -1949.77               
   136 r.140                 1682.73      -1926.43               
   137 r.141                 1974.68       23.7462               
   138 r.142                -1974.68      -1974.68               
   139 r.143                 1614.16       35.4382               
   140 r.144                -1614.16       -1961.3               
   141 r.145                 170.532       100.305               
   142 r.146                -170.532      -1974.68               
   143 r.147                  1961.3       71.8105               
   144 r.148                 -1961.3       -1961.3               
   145 r.149                 70.2269      -1875.71               
   146 r.150                -1829.47       -1879.7               
   147 r.151                 1789.19      -1875.71               
   148 r.152                -110.509       -1879.7               
   149 r.153                -1945.93       -1962.4               
   150 r.154                -1664.89      -1936.75               
   151 r.155                 42.9339       -1962.4               
   152 r.156                 323.974      -1936.75               
   153 r.157                 1978.75         26.62               
   154 r.158                -1976.25      -1976.25               
   155 r.159                 108.704       40.1298               
   156 r.160                -113.704      -1964.56               
   157 r.161                 224.109       28.2582               
   158 r.162                -224.109      -1976.25               
   159 r.163                  155.04        41.336               
   160 r.164                 -155.04      -1964.56               
   161 r.165                 73.0545       47.7349               
   162 r.166                -75.5545      -1976.25               
   163 r.167                 73.5738       68.5738               
   164 r.168                -68.5738      -1964.56               
   165 r.169                 25.3196       25.3196               
   166 r.170                -25.3196      -1976.25               
   167 r.171                 385.845       38.6982               
   168 r.172                -385.845      -1964.56               
   169 r.173                -1804.15      -1875.25               
   170 r.174                -1732.34       -1879.3               
   171 r.175                -1724.66      -1875.25               
   172 r.176                -1652.85       -1879.3               
   173 r.177                 95.5465      -1875.71               
   174 r.178                -1804.15       -1879.7               
   175 r.179                 175.032      -1875.71               
   176 r.180                -1724.66       -1879.7               
   177 r.181                -1971.25      -1971.25               
   178 r.182                -50.7389      -1954.56               
   179 r.183                 17.6143      -1971.25               
   180 r.184                 1938.13      -1954.56               
   181 r.185                 -1780.4      -1875.25               
   182 r.186                -1708.59       -1879.3               
   183 r.187                -1838.37      -1875.25               
   184 r.188                -1766.56       -1879.3               
   185 r.189                 28.2582       28.2582               
   186 r.190                -28.2582       -1899.7               
   187 r.191                 1807.89        41.336               
   188 r.192                -1807.89      -1928.19               
   189 r.193                  1877.2       47.7349               
   190 r.194                 -1879.7       -1899.7               
   191 r.195                 1726.43       68.5738               
   192 r.196                -1721.43      -1928.19               
   193 r.197                 1829.47       25.3196               
   194 r.198                -1829.47       -1899.7               
   195 r.199                 38.6982       38.6982               
   196 r.200                -38.6982      -1928.19               
   197 r.201                -1804.15      -1875.25               
   198 r.202                -1732.34       -1879.3               
   199 r.203                -1724.66      -1875.25               
   200 r.204                -1652.85       -1879.3               
   201 r.205                  1899.7       99.8431               
   202 r.206                 -1899.7       -1899.7               
   203 r.207                 1928.19        71.408               
   204 r.208                -1928.19      -1928.19               
   205 r.209                 1883.21         26.62               
   206 r.210                -1880.71      -1900.16               
   207 r.211                 1833.37       40.1298               
   208 r.212                -1838.37      -1928.59               
   209 r.213                 1871.44      -1875.71               
   210 r.214                -28.2582       -1879.7               
   211 r.215                  19.992      -1875.71               
   212 r.216                 -1879.7       -1879.7               
   213 r.217                  19.992      -1875.71               
   214 r.218                 -1879.7       -1879.7               
   215 r.219                 106.458      -1875.71               
   216 r.220                -1793.24       -1879.7               
   217 r.221                 70.2269      -1875.71               
   218 r.222                -1829.47       -1879.7               
   219 r.223                 1789.19      -1875.71               
   220 r.224                -110.509       -1879.7               
   221 r.225                 95.5465      -1875.71               
   222 r.226                -1804.15       -1879.7               
   223 r.227                 175.032      -1875.71               
   224 r.228                -1724.66       -1879.7               
   225 r.229                 100.305       100.305               
   226 r.230                -100.305      -1900.16               
   227 r.231                 71.8105       71.8105               
   228 r.232                -71.8105      -1928.59               
   229 r.233                       5      -1970.88               
   230 r.234                -1937.04      -1954.87               
   231 r.235                 1993.87      -1970.88               
   232 r.236                 51.8328      -1954.87               
   233 r.237                -1747.14      -1969.24               
   234 r.238                 -1895.7      -1953.66               
   235 r.239                 241.724      -1969.24               
   236 r.240                 93.1688      -1953.66               
   237 r.241                 -1895.7      -1949.77               
   238 r.242                 17.8349      -1926.43               
   239 r.243                 93.1688      -1949.77               
   240 r.244                  2006.7      -1926.43               
   241 r.245                -1945.93       -1962.4               
   242 r.246                -1664.89      -1936.75               
   243 r.247                 42.9339       -1962.4               
   244 r.248                 323.974      -1936.75               
   245 r.249                -1971.25      -1971.25               
   246 r.250                -50.7389      -1954.56               
   247 r.251                 17.6143      -1971.25               
   248 r.252                 1938.13      -1954.56               

   No. Column name       Activity     Lower bound   Upper bound
------ ------------    ------------- ------------- -------------
     1 tt                    225.763             0               
     2 s_1_1        *              0             0             1 
     3 t_1_1                 219.597             0               
     4 s_1_6        *              1             0             1 
     5 s_2_1        *              1             0             1 
     6 t_2_1                 161.633             0               
     7 s_2_6        *              0             0             1 
     8 s_1_2        *              0             0             1 
     9 t_1_2                 1971.74             0               
    10 s_1_7        *              0             0             1 
    11 s_2_2        *              1             0             1 
    12 t_2_2                 120.297             0               
    13 s_2_7        *              1             0             1 
    14 s_1_3        *              1             0             1 
    15 t_1_3                 120.297             0               
    16 s_2_3        *              0             0             1 
    17 t_2_3                 206.763             0               
    18 s_1_4        *              1             0             1 
    19 t_1_4                 170.532             0               
    20 s_2_4        *              0             0             1 
    21 t_2_4                 1889.49             0               
    22 s_1_5        *              1             0             1 
    23 t_1_5                 195.851             0               
    24 s_2_5        *              0             0             1 
    25 t_2_5                 275.336             0               
    26 t_1_6                       0             0               
    27 t_2_6                 1928.19             0               
    28 t_1_7                 100.305             0               
    29 t_2_7                       0             0               
    30 s_1_8        *              1             0             1 
    31 t_1_8                 224.597             0               
    32 s_2_8        *              0             0             1 
    33 t_2_8                 2213.47             0               
    34 u_1_1_2      *              1             0             1 
    35 u_2_1_2      *              0             0             1 
    36 u_1_1_3      *              0             0             1 
    37 u_2_1_3      *              1             0             1 
    38 u_1_1_4      *              0             0             1 
    39 u_2_1_4      *              1             0             1 
    40 u_1_1_5      *              0             0             1 
    41 u_2_1_5      *              1             0             1 
    42 u_1_1_7      *              0             0             1 
    43 u_2_1_7      *              0             0             1 
    44 u_1_2_1      *              0             0             1 
    45 u_2_2_1      *              1             0             1 
    46 u_1_2_3      *              0             0             1 
    47 u_2_2_3      *              1             0             1 
    48 u_1_2_4      *              0             0             1 
    49 u_2_2_4      *              1             0             1 
    50 u_1_2_5      *              0             0             1 
    51 u_2_2_5      *              1             0             1 
    52 u_1_2_6      *              0             0             1 
    53 u_2_2_6      *              1             0             1 
    54 u_1_3_1      *              1             0             1 
    55 u_2_3_1      *              0             0             1 
    56 u_1_3_2      *              1             0             1 
    57 u_2_3_2      *              0             0             1 
    58 u_1_3_5      *              1             0             1 
    59 u_2_3_5      *              1             0             1 
    60 u_1_3_6      *              0             0             1 
    61 u_2_3_6      *              1             0             1 
    62 u_1_4_1      *              1             0             1 
    63 u_2_4_1      *              0             0             1 
    64 u_1_4_2      *              1             0             1 
    65 u_2_4_2      *              0             0             1 
    66 u_1_4_5      *              1             0             1 
    67 u_2_4_5      *              0             0             1 
    68 u_1_4_6      *              0             0             1 
    69 u_2_4_6      *              1             0             1 
    70 u_1_5_1      *              1             0             1 
    71 u_2_5_1      *              0             0             1 
    72 u_1_5_2      *              1             0             1 
    73 u_2_5_2      *              0             0             1 
    74 u_1_5_3      *              0             0             1 
    75 u_2_5_3      *              0             0             1 
    76 u_1_5_4      *              0             0             1 
    77 u_2_5_4      *              1             0             1 
    78 u_1_6_2      *              1             0             1 
    79 u_2_6_2      *              0             0             1 
    80 u_1_6_3      *              1             0             1 
    81 u_2_6_3      *              0             0             1 
    82 u_1_6_4      *              1             0             1 
    83 u_2_6_4      *              0             0             1 
    84 u_1_6_7      *              1             0             1 
    85 u_2_6_7      *              0             0             1 
    86 u_1_7_1      *              1             0             1 
    87 u_2_7_1      *              1             0             1 
    88 u_1_7_6      *              0             0             1 
    89 u_2_7_6      *              1             0             1 

Integer feasibility conditions:

KKT.PE: max.abs.err = 0.00e+00 on row 0
        max.rel.err = 0.00e+00 on row 0
        High quality

KKT.PB: max.abs.err = 2.27e-13 on row 154
        max.rel.err = 7.47e-15 on row 53
        High quality

End of output
